400
500 500
1 400 695
2 400 890
3 400 391
4 400 379
5 399 513
6 398 191
7 398 176
8 397 790
9 396 49
10 396 815
11 395 109
12 395 327
13 393 171
14 392 99
15 392 135
16 392 858
17 392 17
18 391 576
19 391 455
20 390 662
21 389 684
22 388 481
23 388 12
24 388 381
25 385 129
26 384 725
27 384 785
28 383 332
29 383 359
30 383 629
31 380 460
32 379 375
33 379 244
34 378 829
35 377 819
36 377 345
37 375 942
38 372 437
39 372 196
40 371 636
41 371 138
42 371 390
43 371 720
44 369 826
45 367 60
46 366 521
47 365 136
48 365 68
49 365 760
50 364 186
51 363 76
52 363 856
53 362 50
54 362 835
55 360 587
56 359 357
57 359 683
58 356 117
59 356 29
60 355 899
61 352 149
62 352 447
63 351 417
64 351 941
65 350 582
66 348 537
67 347 390
68 347 817
69 346 384
70 346 239
71 345 628
72 343 224
73 343 934
74 342 0
75 342 836
76 342 277
77 342 195
78 340 868
79 340 798
80 339 633
81 338 213
82 333 532
83 332 237
84 332 787
85 330 241
86 330 909
87 329 646
88 329 588
89 329 271
90 328 173
91 328 441
92 328 934
93 328 575
94 327 953
95 324 912
96 322 455
97 322 573
98 322 469
99 321 518
100 319 88
101 319 481
102 319 805
103 318 80
104 316 906
105 315 265
106 315 399
107 312 228
108 312 304
109 311 719
110 310 125
111 309 782
112 309 1000
113 308 883
114 308 959
115 308 731
116 307 878
117 307 191
118 306 888
119 306 328
120 305 201
121 303 625
122 303 412
123 303 978
124 303 11
125 302 617
126 301 252
127 301 644
128 300 944
129 299 175
130 299 8
131 299 112
132 299 348
133 298 396
134 297 108
135 297 981
136 296 619
137 296 358
138 295 734
139 294 469
140 293 348
141 293 365
142 293 334
143 290 437
144 289 917
145 288 359
146 288 456
147 287 42
148 286 174
149 286 785
150 286 172
151 285 356
152 285 455
153 282 763
154 282 468
155 280 663
156 280 58
157 279 201
158 279 874
159 278 823
160 276 926
161 275 112
162 274 476
163 273 457
164 273 472
165 273 518
166 273 237
167 272 701
168 270 346
169 270 111
170 270 930
171 270 368
172 269 946
173 269 237
174 268 617
175 268 320
176 268 387
177 267 622
178 267 955
179 267 521
180 267 376
181 266 927
182 266 254
183 265 955
184 265 925
185 264 810
186 263 144
187 260 20
188 259 723
189 259 1
190 258 542
191 258 549
192 255 711
193 254 802
194 254 385
195 254 843
196 252 192
197 249 242
198 248 790
199 246 621
200 246 580
201 246 196
202 246 501
203 245 194
204 244 209
205 244 907
206 244 629
207 243 290
208 243 915
209 242 209
210 241 819
211 240 479
212 240 495
213 239 830
214 238 805
215 238 187
216 235 788
217 235 24
218 235 909
219 234 93
220 233 444
221 231 650
222 231 726
223 230 432
224 229 470
225 229 974
226 228 586
227 227 730
228 224 706
229 223 96
230 222 715
231 221 113
232 220 479
233 219 54
234 219 764
235 217 895
236 217 151
237 217 367
238 216 206
239 216 724
240 216 664
241 216 315
242 215 925
243 213 810
244 213 37
245 213 364
246 213 985
247 212 696
248 212 295
249 212 54
250 211 295
251 211 719
252 208 671
253 208 81
254 207 862
255 205 520
256 205 10
257 205 66
258 203 981
259 203 472
260 202 301
261 202 422
262 202 772
263 199 511
264 199 417
265 198 408
266 198 214
267 198 459
268 197 43
269 197 432
270 196 314
271 196 585
272 196 486
273 195 451
274 194 916
275 193 882
276 192 372
277 191 380
278 190 439
279 190 701
280 189 738
281 187 656
282 186 700
283 186 125
284 186 50
285 185 920
286 183 930
287 183 29
288 181 398
289 180 955
290 180 67
291 180 948
292 179 941
293 178 433
294 178 630
295 177 913
296 177 102
297 176 885
298 176 188
299 175 615
300 175 126
301 174 189
302 173 297
303 173 449
304 171 594
305 171 516
306 169 392
307 168 472
308 165 622
309 165 741
310 164 219
311 164 96
312 163 569
313 161 241
314 161 944
315 160 397
316 159 73
317 157 29
318 157 691
319 156 986
320 156 865
321 154 667
322 153 724
323 152 7
324 151 769
325 151 918
326 150 956
327 150 761
328 150 111
329 149 178
330 148 702
331 148 412
332 147 543
333 147 590
334 147 236
335 146 769
336 146 135
337 145 762
338 145 826
339 144 499
340 143 220
341 143 602
342 142 482
343 141 306
344 140 717
345 139 173
346 138 650
347 138 72
348 138 406
349 138 664
350 137 909
351 137 555
352 137 716
353 136 144
354 136 742
355 133 691
356 132 297
357 132 352
358 132 482
359 131 216
360 130 370
361 129 908
362 129 369
363 129 135
364 128 451
365 127 90
366 127 907
367 124 933
368 123 918
369 123 999
370 122 305
371 122 846
372 119 23
373 118 835
374 118 533
375 117 927
376 117 661
377 117 904
378 117 376
379 117 643
380 114 180
381 114 777
382 113 563
383 113 812
384 113 798
385 113 116
386 111 497
387 110 432
388 110 715
389 109 454
390 108 961
391 108 689
392 108 910
393 107 95
394 107 798
395 106 544
396 105 761
397 105 335
398 103 22
399 103 387
400 103 558
